BiOCl                                   
   3.89000000000000     
     1.0000000000000000    0.0000000000000000    0.0000000000000000
     0.0000000000000000    1.0000000000000000    0.0000000000000000
     0.0000000000000000    0.0000000000000000    7.5000000000000000
   Bi   O    Cl
     2     2     2
Direct
  0.0000000000000000  0.0000000000000000  0.0809261762490985
  0.5000000000000000  0.5000000000000000  0.1690716052618106
  0.5000000000000000  0.0000000000000000  0.1249611583158981
 -0.0000000000000000  0.5000000000000000  0.1249611583158981
 -0.0000000000000000  0.0000000000000000  0.2175567684915964
  0.5000000000000000  0.5000000000000000  0.0325231333656913
